mixintcount/benchmarks/random_v2l/4_4_2511.smt2
(set-logic QF_LIA)
(set-info :ran/ran2.smt2)
(set-info :smt-lib-version 2.0)
(declare-fun x1 () Int)
(declare-fun x2 () Int)
(declare-fun x3 () Int)
(declare-fun x4 () Int)
(assert (<= (+ (* (- 6) x1) (* (- 6) x2) (* 5 x3) (* 9 x4) ) 1003))
(assert (<= (+ (* 10 x1) (* (- 3) x2) (* 3 x3) (* (- 8) x4) ) 471))
(assert (<= (+ (* 4 x1) (* 8 x2) (* 0 x3) (* (- 2) x4) ) 1615))
(assert (<= (+ (* (- 3) x1) (* (- 1) x2) (* 10 x3) (* 6 x4) ) 2431))
(assert (<= (+ (* 10 x1) (* 1 x2) (* (- 7) x3) (* (- 8) x4) ) 2168))
(assert (<= (+ (* 1 x1) (* 4 x2) (* (- 7) x3) (* (- 9) x4) ) 2068))
(assert (<= (+ (* 5 x1) (* (- 7) x2) (* 5 x3) (* (- 3) x4) ) (- 498)))
(assert (<= (+ (* (- 1) x1) (* (- 5) x2) (* (- 4) x3) (* 10 x4) ) 1897))
(assert (<= (+ (* 1 x1) (* 0 x2) (* 0 x3) (* 0 x4) ) 2511))
(assert (<= (+ (* (- 1) x1) (* 0 x2) (* 0 x3) (* 0 x4) ) 2511))
(assert (<= (+ (* 0 x1) (* 1 x2) (* 0 x3) (* 0 x4) ) 2511))
(assert (<= (+ (* 0 x1) (* (- 1) x2) (* 0 x3) (* 0 x4) ) 2511))
(assert (<= (+ (* 0 x1) (* 0 x2) (* 1 x3) (* 0 x4) ) 2511))
(assert (<= (+ (* 0 x1) (* 0 x2) (* (- 1) x3) (* 0 x4) ) 2511))
(assert (<= (+ (* 0 x1) (* 0 x2) (* 0 x3) (* 1 x4) ) 2511))
(assert (<= (+ (* 0 x1) (* 0 x2) (* 0 x3) (* (- 1) x4) ) 2511))
