mixintcount/benchmarks/random_v2l/4_4_2511.in
16 6
#	x1	x2	x3	x4;		0 = Real; 1 = Integer
	1	1	1	1
1	-6	-6	5	9	1003
1	10	-3	3	-8	471
1	4	8	0	-2	1615
1	-3	-1	10	6	2431
1	10	1	-7	-8	2168
1	1	4	-7	-9	2068
1	5	-7	5	-3	-498
1	-1	-5	-4	10	1897
1	1	0	0	0	2511
1	-1	0	0	0	2511
1	0	1	0	0	2511
1	0	-1	0	0	2511
1	0	0	1	0	2511
1	0	0	-1	0	2511
1	0	0	0	1	2511
1	0	0	0	-1	2511
